p cnf 66 197
-3 -2 0
-3 -2 0
2 3 0
3 -4 -5 0
-3 4 -5 0
3 4 5 0
-3 -4 5 0
6 -1 0
6 -5 0
1 5 -6 0
9 7 0
9 8 0
-7 -8 -9 0
-9 10 -11 0
9 -10 -11 0
-9 -10 11 0
9 10 11 0
12 -2 -13 0
-12 2 -13 0
12 2 13 0
-12 -2 13 0
-11 -13 -14 0
11 13 -14 0
-11 13 14 0
11 -13 14 0
-18 -16 0
-18 17 0
16 -17 18 0
19 16 0
19 18 0
-16 -18 -19 0
20 4 0
20 19 0
-4 -19 -20 0
-15 -20 -21 0
15 20 -21 0
-15 20 21 0
15 -20 21 0
23 -22 0
23 -12 0
22 12 -23 0
-24 21 0
-24 -23 0
-21 23 24 0
14 24 -25 0
-14 -24 -25 0
14 -24 25 0
-14 24 25 0
-27 -12 0
-27 26 0
12 -26 27 0
-9 2 -28 0
9 -2 -28 0
-9 -2 28 0
9 2 28 0
27 -28 -29 0
-27 28 -29 0
27 28 29 0
-27 -28 29 0
18 30 -31 0
-18 -30 -31 0
18 -30 31 0
-18 30 31 0
-29 31 -32 0
29 -31 -32 0
-29 -31 32 0
29 31 32 0
33 25 0
33 32 0
-25 -32 -33 0
-34 12 0
-34 -26 0
-12 26 34 0
36 -34 0
36 35 0
34 -35 -36 0
-38 16 0
-38 37 0
-16 -37 38 0
-39 8 0
-39 -38 0
-8 38 39 0
-10 39 -40 0
10 -39 -40 0
-10 -39 40 0
10 39 40 0
13 40 -41 0
-13 -40 -41 0
13 -40 41 0
-13 40 41 0
42 -36 0
42 -41 0
36 41 -42 0
33 -42 -43 0
-33 42 -43 0
33 42 43 0
-33 -42 43 0
-44 27 0
-44 10 0
-27 -10 44 0
-22 -19 -45 0
22 19 -45 0
-22 19 45 0
22 -19 45 0
46 -44 0
46 45 0
44 -45 -46 0
47 -4 0
47 9 0
4 -9 -47 0
48 -2 0
48 -47 0
2 47 -48 0
-1 38 -49 0
1 -38 -49 0
-1 -38 49 0
1 38 49 0
-48 49 -50 0
48 -49 -50 0
-48 -49 50 0
48 49 50 0
51 -31 0
51 38 0
31 -38 -51 0
-50 51 -52 0
50 -51 -52 0
-50 -51 52 0
50 51 52 0
-53 28 -54 0
53 -28 -54 0
-53 -28 54 0
53 28 54 0
55 -9 0
55 47 0
9 -47 -55 0
-56 -38 0
-56 -22 0
38 22 56 0
57 55 0
57 56 0
-55 -56 -57 0
-58 54 0
-58 -57 0
-54 57 58 0
-2 -17 -59 0
2 17 -59 0
-2 17 59 0
2 -17 59 0
-60 -58 0
-60 -59 0
58 59 60 0
61 -52 0
61 -60 0
52 60 -61 0
-62 46 0
-62 -61 0
-46 61 62 0
63 -9 0
63 -19 0
9 19 -63 0
64 62 0
64 63 0
-62 -63 -64 0
65 -43 0
65 -64 0
43 64 -65 0
6 -65 -66 0
-6 65 -66 0
6 65 66 0
-6 -65 66 0
-58 -32 3 0
12 48 -33 -41 0
15 1 -23 5 19 -36 0
-14 10 33 -63 6 56 0
58 47 35 -54 0
-26 50 62 0
-65 -31 -11 -37 0
-26 56 27 55 0
8 25 43 0
32 64 31 -58 -44 0
40 25 0
38 -1 0
-61 64 0
26 -15 42 -55 0
25 65 58 59 28 0
-53 -50 19 0
-5 -32 56 -24 0
-51 -14 0
-62 -26 0
31 62 -17 -45 0
-15 -56 51 0
22 -65 17 -56 49 -13 0
57 -39 0
-48 66 -39 55 0
10 -17 48 60 18 41 0
-63 -50 0
66 0
